NAME : instances/clustered-mixed-tsp/instance-89.tsp
COMMENT : No Comment
TYPE : TSP
DIMENSION: 50
EDGE_WEIGHT_TYPE : EUC_2D
NODE_COORD_SECTION
1 132 230 
2 684 59 
3 41 898 
4 262 156 
5 878 155 
6 306 157 
7 132 268 
8 224 42 
9 865 -23 
10 817 78 
11 3 955 
12 224 194 
13 174 860 
14 840 3 
15 325 138 
16 935 193 
17 414 118 
18 878 174 
19 94 249 
20 319 213 
21 973 117 
22 249 233 
23 627 40 
24 230 233 
25 973 174 
26 395 232 
27 395 194 
28 783 3 
29 227 363 
30 878 193 
31 401 176 
32 193 841 
33 136 860 
34 779 21 
35 779 -17 
36 741 2 
37 859 60 
38 284 230 
39 802 41 
40 760 -36 
41 211 157 
42 98 974 
43 174 955 
44 287 214 
45 878 79 
46 376 194 
47 22 860 
48 741 -36 
49 227 401 
50 338 42 
EOF
